64 919
1 2 7 11 12 15 17 18 21 25 27 30 31 32 34 35 38 42 44 47 50 51 52 56 57 58 62 63
0 2 3 4 5 8 10 11 12 13 14 15 16 17 21 23 25 27 28 36 38 39 40 42 43 44 46 50 51 56 57 59 60 61 62 63
0 1 8 12 13 15 17 22 24 26 29 31 34 35 38 42 43 45 46 47 48 49 56 57 59 60 63
1 4 5 8 9 17 18 20 23 24 25 26 28 29 30 36 38 39 41 42 46 51 52 53 56 60 62
1 3 6 9 10 11 12 15 17 18 19 20 22 30 31 32 34 38 39 42 47 51 55 57 58 60
1 3 6 7 8 9 10 11 12 14 15 17 21 23 26 29 30 34 35 37 38 39 45 47 48 50 54 55 57 58 61 63
4 5 10 11 12 13 14 15 17 18 19 21 25 26 28 31 35 37 38 39 41 43 44 52 53 54 55 57 59 60 62 63
0 5 9 10 13 17 21 22 23 24 25 27 28 30 31 33 37 38 40 41 43 44 46 50 54 55 63
1 2 3 5 9 12 14 21 26 29 30 31 33 36 43 46 49 54 55 57 59 60
3 4 5 7 8 10 11 12 21 22 24 25 26 27 28 29 30 31 33 37 41 42 50 51 54 56 60
1 4 5 6 7 9 13 14 15 16 18 19 21 22 25 26 27 30 31 36 37 38 39 40 43 46 50 51 53 54 56 57 58 61 63
0 1 4 5 6 9 12 13 14 16 18 19 20 23 24 25 28 29 33 37 39 42 43 49 50 55 57 58 59 61
0 1 2 4 5 6 8 9 11 17 19 22 23 24 25 28 29 32 34 35 40 41 42 54 55 57 58 59 61 62 63
1 2 6 7 10 11 14 25 29 31 32 36 37 38 39 40 49 50 54 55 60 61
1 5 6 8 10 11 13 15 19 21 25 26 28 29 30 32 33 37 39 41 50 57 58 59 61
0 1 2 4 5 6 10 14 19 20 21 25 26 27 28 29 30 31 35 39 40 41 42 43 46 48 51 52 53 54 58 61
1 10 11 17 18 19 21 23 27 28 29 30 31 32 35 37 39 44 48 49 50 51 56 58 59 63
0 1 2 3 4 5 6 7 12 16 18 20 21 23 24 25 26 27 29 31 32 35 38 44 45 46 49 50 51 55 57 60
0 3 4 6 10 11 16 17 19 20 22 23 24 27 31 32 35 37 38 40 41 48 53 54 56 59 61 62
4 6 10 11 12 14 15 16 18 23 25 28 32 35 38 42 43 45 47 50 52 56 59 60 62
3 4 11 15 17 18 21 23 24 25 26 27 29 30 31 35 36 39 42 43 44 45 50 51 55 60 61 63
0 1 5 6 7 8 9 10 14 15 16 17 20 22 23 24 25 27 28 29 30 31 34 35 40 41 42 44 48 54 55 58 61 62 63
2 4 7 9 10 12 18 21 23 24 26 27 30 32 35 36 38 39 40 42 44 45 49 52 54 62
1 3 5 7 11 12 16 17 18 19 20 21 22 24 25 28 30 32 33 34 37 38 39 41 42 46 47 48 53 54 56 57 59 60 61 62 63
2 3 7 9 11 12 17 18 20 21 22 23 26 27 28 32 41 42 44 47 49 50 51 57 59 60 62 63
0 1 3 6 7 9 10 11 12 13 14 15 17 19 20 21 23 26 30 32 34 37 38 41 42 48 50 52 54 55 57 59 60 62 63
2 3 5 6 8 9 10 14 15 17 20 22 24 25 28 31 32 34 44 45 46 52 55 56 57 58 62 63
0 1 7 9 10 15 16 17 18 20 21 22 24 29 30 34 35 37 38 39 42 43 44 45 53 54 55 59 60 63
1 3 6 7 9 11 12 14 15 16 19 21 23 24 26 30 33 35 36 37 40 45 46 49 53 54 55 59
2 3 5 8 9 11 12 13 14 15 16 17 20 21 27 30 31 32 36 39 42 43 44 46 53 58 59 61 62
0 3 4 5 7 8 9 10 14 15 16 20 21 22 23 25 27 28 29 36 37 39 45 46 48 49 50 51 52 54 55 57 58 60 61
0 2 4 6 7 8 9 10 13 15 16 17 18 20 21 26 29 32 33 39 41 42 44 46 49 50 55 60 62
0 4 12 13 14 16 17 18 19 22 23 24 25 26 29 31 33 34 35 36 46 47 52 53 54 55 56 63
7 8 9 11 14 23 28 31 32 34 37 38 43 44 45 46 48 49 53 54 55 57 58 59 60 61 62
0 2 4 5 12 21 23 25 26 27 32 33 39 41 45 49 50 53 54 55 57 58 62
0 2 5 6 12 15 16 17 18 19 20 21 22 27 28 32 37 40 41 43 44 50 51 52 54 55 59
1 3 8 10 13 20 22 28 29 30 32 38 40 43 45 46 48 52 54 56 57 59 60 62
5 6 7 9 10 11 13 14 16 18 23 25 27 28 30 33 35 39 40 43 49 51 55 60 62
0 1 2 3 4 5 6 7 10 13 17 18 19 22 23 25 27 33 36 42 43 44 49 52 53 55 56 57 58 59 62 63
1 3 4 5 6 10 11 13 14 15 16 20 22 23 27 29 30 31 34 37 41 42 45 46 50 52 55 58 59 60 61 62 63
1 7 10 12 13 15 18 21 22 28 35 36 37 43 45 46 47 53 58 59 62 63
3 6 7 9 12 14 15 18 21 23 24 25 31 34 35 39 43 45 46 48 49 51 52 55 57 59
0 1 2 3 4 9 11 12 15 19 20 21 22 23 24 25 27 29 31 38 39 44 50 53 56 57 58 61 62
1 2 6 7 8 10 11 15 19 20 27 29 33 35 36 37 38 40 41 48 51 52 53 55 56 58
0 1 6 7 16 17 20 21 22 24 26 27 29 31 33 35 38 42 47 49 50 51 54 57 59 60 61 62
2 5 17 19 20 22 26 27 28 30 33 34 36 39 40 41 46 47 52 53 54 55 59 60 61
1 2 3 7 8 10 15 17 23 26 28 29 30 31 32 33 36 39 40 41 45 47 50 53 54 55 56 58 59 61 62
0 2 4 5 19 23 24 32 40 44 45 46 49 50 51 53 54 55 56 57 59 60 61 62
2 5 15 16 18 21 23 25 30 33 36 41 43 52 56 57 60
2 8 11 13 16 17 22 24 28 30 31 33 34 37 38 41 44 47 51 53 55 56 57 62 63
0 1 5 7 9 10 11 13 14 16 17 19 20 24 25 30 31 34 35 39 42 44 46 47 51 52 53 54 55 57 58 61 62
0 1 3 4 9 10 15 16 17 20 24 30 35 37 41 43 44 47 49 50 53 54 56 59 62 63
0 3 6 15 19 22 25 26 30 32 35 36 38 39 41 43 45 48 50 53 54 55 56 57 58 60
3 6 10 15 18 23 27 28 29 32 33 34 38 40 42 43 45 46 47 49 50 51 52 54 56 58 61 62
5 6 7 8 9 10 12 13 15 18 21 22 23 25 27 28 30 32 33 34 35 36 44 45 46 47 50 51 52 53 56 58 60 62 63
4 5 6 7 8 11 12 13 17 20 21 25 26 27 28 30 31 32 33 34 35 37 38 39 41 43 45 46 47 49 50 52 60 61 62
0 1 2 3 9 10 16 18 19 23 26 32 36 38 42 43 46 47 48 49 51 52 53 54 57 59 60 62 63
0 1 2 4 5 6 8 10 11 12 14 17 23 24 25 26 30 33 34 36 38 41 42 44 47 48 49 50 52 56 58 61 62
0 4 5 10 11 12 14 15 16 21 26 29 30 33 34 38 39 40 42 43 46 50 52 53 54 57 59 60 61 62 63
1 2 6 8 11 12 14 16 18 19 23 24 25 27 28 29 33 35 36 38 39 40 41 44 45 46 47 51 56 58 63
1 2 3 4 6 8 9 13 17 19 20 23 24 25 27 30 31 33 36 37 39 44 45 47 48 52 54 55 56 58 63
1 5 10 11 12 13 14 15 18 20 21 23 29 30 33 39 42 44 45 46 47 50 53 55 57 58
0 1 3 6 12 18 19 21 22 23 24 25 26 29 31 33 34 36 37 38 39 40 42 44 46 47 49 50 51 53 54 55 56 57 58 63
0 1 2 5 6 7 10 12 16 20 21 23 24 25 26 27 32 38 39 40 49 51 54 56 58 59 60 62
